language Essence 1.3

letting bot_end be
        [747, 188, 34, 755, 21, 634, 759, 750, 80, 56, 627, 127, 753, 718, 187, 724, 719, 107, 20, 150; int(1..20)]
letting bot_start be
        [252, 757, 655, 194, 518, 49, 300, 244, 754, 552, 87, 733, 268, 240, 729, 219, 250, 629, 517, 747; int(1..20)]
letting buffer_col be 2
letting buffer_row be 2
letting corridor_size be 1
letting n_shelves_col be 2
letting n_shelves_row be 36
letting shelf_col_size be 2
letting shelf_row_size be 1
